comp/2017/General_Track/CrCi/CrCy_10-sbox2-D5-sIn24.sl

(set-logic BV)


(define-fun origCir ( (LN16 Bool) (LN25 Bool) (LN50 Bool) (LN63 Bool)  )  Bool    
          (xor  LN63(xor (xor  LN16 LN25 ) LN50 ) )
)


(synth-fun skel ( (LN16 Bool) (LN25 Bool) (LN50 Bool) (LN63 Bool)  )  Bool    
          ((Start Bool (
		                                  (and depth1 depth1)
		                                  (not depth1)
		                                  (or depth1 depth1)
		                                  (xor depth1 depth1)
          ))
          (depth1 Bool (
		                                  (and depth2 depth2)
		                                  (not depth2)
		                                  (or depth2 depth2)
		                                  (xor depth2 depth2)
          ))
          (depth2 Bool (
		                                  (and depth3 depth3)
		                                  (not depth3)
		                                  (or depth3 depth3)
		                                  (xor depth3 depth3)
		                                  LN50
		                                  LN63
          ))
          (depth3 Bool (
		                                  (and depth4 depth4)
		                                  (not depth4)
		                                  (or depth4 depth4)
		                                  (xor depth4 depth4)
		                                  LN16
          ))
          (depth4 Bool (
		                                  LN25
          )))
)


(declare-var LN16 Bool)
(declare-var LN25 Bool)
(declare-var LN50 Bool)
(declare-var LN63 Bool)

(constraint (= (origCir LN16 LN25 LN50 LN63 ) (skel LN16 LN25 LN50 LN63 )))


(check-synth)

